size = 9;

clue = [| 0, 0, 0,   0, 0, 0,   0, 0, 0
        | 0, 0, 0,   0, 0, 0,   0, 0, 0
        | 0, 0, 0,   0, 0, 0,   0, 0, 0

        | 0, 0, 0,   0, 0, 0,   0, 0, 0
        | 0, 0, 0,   0, 0, 0,   0, 0, 0
        | 0, 0, 0,   0, 0, 0,   0, 0, 0

        | 0, 0, 0,   0, 0, 0,   0, 0, 0
        | 0, 0, 0,   0, 0, 0,   0, 0, 0
        | 0, 0, 0,   0, 0, 0,   0, 0, 0
        |];

num_cages = 33;
max_cage_cells = 5;

cage_totals = [11, 12, 27, 13, 21, 9, 6, 11, 13, 15, 18, 15, 6, 14, 4, 11, 8, 10, 11, 19, 7, 3, 11, 14, 7, 17, 21, 10, 22, 11, 12, 14, 2];

cages =  [| (r: 1, c: 1), (r: 2, c: 1), (r: 0, c: 0), (r: 0, c: 0), (r: 0, c: 0)
          | (r: 1, c: 2), (r: 1, c: 3), (r: 0, c: 0), (r: 0, c: 0), (r: 0, c: 0)
          | (r: 1, c: 4), (r: 1, c: 5), (r: 1, c: 6), (r: 1, c: 7), (r: 0, c: 0)
          | (r: 1, c: 8), (r: 1, c: 9), (r: 2, c: 8), (r: 2, c: 9), (r: 0, c: 0)
          | (r: 2, c: 2), (r: 3, c: 2), (r: 3, c: 3), (r: 4, c: 2), (r: 4, c: 3)
          | (r: 2, c: 3), (r: 2, c: 4), (r: 0, c: 0), (r: 0, c: 0), (r: 0, c: 0)
          | (r: 2, c: 5), (r: 2, c: 6), (r: 3, c: 6), (r: 0, c: 0), (r: 0, c: 0)
          | (r: 2, c: 7), (r: 3, c: 7), (r: 0, c: 0), (r: 0, c: 0), (r: 0, c: 0)
          | (r: 3, c: 1), (r: 4, c: 1), (r: 0, c: 0), (r: 0, c: 0), (r: 0, c: 0)
          | (r: 3, c: 4), (r: 3, c: 5), (r: 0, c: 0), (r: 0, c: 0), (r: 0, c: 0)
          | (r: 3, c: 8), (r: 4, c: 8), (r: 5, c: 8), (r: 0, c: 0), (r: 0, c: 0)
          | (r: 3, c: 9), (r: 4, c: 9), (r: 0, c: 0), (r: 0, c: 0), (r: 0, c: 0)
          | (r: 4, c: 4), (r: 5, c: 4), (r: 0, c: 0), (r: 0, c: 0), (r: 0, c: 0)
          | (r: 4, c: 5), (r: 5, c: 5), (r: 0, c: 0), (r: 0, c: 0), (r: 0, c: 0)
          | (r: 4, c: 6), (r: 4, c: 7), (r: 0, c: 0), (r: 0, c: 0), (r: 0, c: 0)
          | (r: 5, c: 1), (r: 5, c: 2), (r: 0, c: 0), (r: 0, c: 0), (r: 0, c: 0)
          | (r: 5, c: 3), (r: 6, c: 3), (r: 0, c: 0), (r: 0, c: 0), (r: 0, c: 0)
          | (r: 5, c: 6), (r: 5, c: 7), (r: 0, c: 0), (r: 0, c: 0), (r: 0, c: 0)
          | (r: 5, c: 9), (r: 6, c: 9), (r: 0, c: 0), (r: 0, c: 0), (r: 0, c: 0)
          | (r: 6, c: 1), (r: 6, c: 2), (r: 7, c: 2), (r: 8, c: 2), (r: 0, c: 0)
          | (r: 6, c: 4), (r: 0, c: 0), (r: 0, c: 0), (r: 0, c: 0), (r: 0, c: 0)
          | (r: 6, c: 5), (r: 0, c: 0), (r: 0, c: 0), (r: 0, c: 0), (r: 0, c: 0)
          | (r: 6, c: 6), (r: 6, c: 7), (r: 7, c: 7), (r: 0, c: 0), (r: 0, c: 0)
          | (r: 6, c: 8), (r: 7, c: 8), (r: 7, c: 9), (r: 0, c: 0), (r: 0, c: 0)
          | (r: 7, c: 1), (r: 8, c: 1), (r: 0, c: 0), (r: 0, c: 0), (r: 0, c: 0)
          | (r: 7, c: 3), (r: 7, c: 4), (r: 0, c: 0), (r: 0, c: 0), (r: 0, c: 0)
          | (r: 7, c: 5), (r: 7, c: 6), (r: 8, c: 5), (r: 8, c: 6), (r: 0, c: 0)
          | (r: 8, c: 3), (r: 8, c: 4), (r: 0, c: 0), (r: 0, c: 0), (r: 0, c: 0)
          | (r: 8, c: 7), (r: 8, c: 8), (r: 9, c: 7), (r: 0, c: 0), (r: 0, c: 0)
          | (r: 8, c: 9), (r: 9, c: 9), (r: 0, c: 0), (r: 0, c: 0), (r: 0, c: 0)
          | (r: 9, c: 1), (r: 9, c: 2), (r: 9, c: 3), (r: 0, c: 0), (r: 0, c: 0)
          | (r: 9, c: 4), (r: 9, c: 5), (r: 9, c: 6), (r: 0, c: 0), (r: 0, c: 0)
          | (r: 9, c: 8), (r: 0, c: 0), (r: 0, c: 0), (r: 0, c: 0), (r: 0, c: 0)
          |]